Sodium difluorodioxoniobate
1.0
        8.0025997162         0.0000000000         0.0000000000
        0.0000000000         5.4071798325         0.0000000000
       -1.5742180123         0.0000000000         7.4600023789
   Na   Nb    O    F
    4    4    8    8
Direct
     0.366600007         0.779999971         0.115599997
     0.633399963         0.220000029         0.884400010
     0.633399963         0.279999971         0.384400010
     0.366600007         0.720000029         0.615599990
     0.154939994         0.264400005         0.317999989
     0.845059991         0.735599995         0.682000041
     0.845059991         0.764400005         0.182000011
     0.154939994         0.235599995         0.817999959
     0.182500005         0.156200007         0.070900001
     0.817499995         0.843800008         0.929099977
     0.817499995         0.656199992         0.429100007
     0.182500005         0.343800008         0.570900023
     0.042500000         0.543900013         0.211700007
     0.957499981         0.456099987         0.788299978
     0.957499981         0.043900013         0.288299978
     0.042500000         0.956099987         0.711700022
     0.376899987         0.444000006         0.313699991
     0.623100042         0.555999994         0.686300039
     0.623100042         0.944000006         0.186300009
     0.376899987         0.055999994         0.813699961
     0.310400009         0.976599991         0.378300011
     0.689599991         0.023400009         0.621699989
     0.689599991         0.476599991         0.121699989
     0.310400009         0.523400009         0.878300011
