Sodium difluorodioxoniobate             
   1.0000000000000000     
     8.0025997162000007    0.0000000000000000    0.0000000000000000
     0.0000000000000000    5.4071798324999998    0.0000000000000000
    -1.5742180123000000    0.0000000000000000    7.4600023788999996
   Na   Nb   O    F 
     4     4     8     8
Direct
  0.3595416542763346  0.7803808976636404  0.1195942940164727
  0.6404583157236701  0.2196191023363596  0.8804057129835243
  0.6404583157236701  0.2803808976636404  0.3804057129835243
  0.3595416542763346  0.7196191023363596  0.6195942870164757
  0.1563309918003384  0.2684720020927500  0.3189301885085243
  0.8436689931996639  0.7315279979072500  0.6810698414914782
  0.8436689931996639  0.7684720020927500  0.1810698114914757
  0.1563309918003384  0.2315279979072500  0.8189301585085218
  0.1787251638108316  0.1527394238697255  0.0563942643289437
  0.8212748361891684  0.8472605911302793  0.9436057136710545
  0.8212748361891684  0.6527394088697207  0.4436057436710570
  0.1787251638108316  0.3472605911302793  0.5563942863289455
  0.0413604896525257  0.5641574726777421  0.2107353602470141
  0.9586394913474692  0.4358425273222579  0.7892646247529811
  0.9586394913474692  0.0641574726777421  0.2892646247529811
  0.0413604896525257  0.9358425273222579  0.7107353752470189
  0.3781978706932208  0.4523012559377975  0.3130532987981240
  0.6218021583067781  0.5476987440622025  0.6869467312018784
  0.6218021583067781  0.9523012559377975  0.1869467012018760
  0.3781978706932208  0.0476987440622025  0.8130532687981216
  0.3150781456089007  0.9773009674065278  0.3806173013328831
  0.6849218543910993  0.0226990325934722  0.6193826986671169
  0.6849218543910993  0.4773009674065278  0.1193826986671169
  0.3150781456089007  0.5226990325934722  0.8806173013328831

  0.00000000E+00  0.00000000E+00  0.00000000E+00
  0.00000000E+00  0.00000000E+00  0.00000000E+00
  0.00000000E+00  0.00000000E+00  0.00000000E+00
  0.00000000E+00  0.00000000E+00  0.00000000E+00
  0.00000000E+00  0.00000000E+00  0.00000000E+00
  0.00000000E+00  0.00000000E+00  0.00000000E+00
  0.00000000E+00  0.00000000E+00  0.00000000E+00
  0.00000000E+00  0.00000000E+00  0.00000000E+00
  0.00000000E+00  0.00000000E+00  0.00000000E+00
  0.00000000E+00  0.00000000E+00  0.00000000E+00
  0.00000000E+00  0.00000000E+00  0.00000000E+00
  0.00000000E+00  0.00000000E+00  0.00000000E+00
  0.00000000E+00  0.00000000E+00  0.00000000E+00
  0.00000000E+00  0.00000000E+00  0.00000000E+00
  0.00000000E+00  0.00000000E+00  0.00000000E+00
  0.00000000E+00  0.00000000E+00  0.00000000E+00
  0.00000000E+00  0.00000000E+00  0.00000000E+00
  0.00000000E+00  0.00000000E+00  0.00000000E+00
  0.00000000E+00  0.00000000E+00  0.00000000E+00
  0.00000000E+00  0.00000000E+00  0.00000000E+00
  0.00000000E+00  0.00000000E+00  0.00000000E+00
  0.00000000E+00  0.00000000E+00  0.00000000E+00
  0.00000000E+00  0.00000000E+00  0.00000000E+00
  0.00000000E+00  0.00000000E+00  0.00000000E+00
