Sodium difluorodioxoniobate             
   1.0000000000000000     
     8.0749895642735758    0.0000000000000000   -0.0133825494433117
     0.0000000000000000    5.4404446419376837    0.0000000000000000
    -1.6007013707597291    0.0000000000000000    7.4774514505467442
   Na   Nb   O    F 
     4     4     8     8
Direct
  0.3621541349789635  0.7813545218878037  0.1185041827195711
  0.6378458350210410  0.2186454781121962  0.8814958242804259
  0.6378458350210410  0.2813545218878041  0.3814958242804260
  0.3621541349789635  0.7186454781121963  0.6185041757195741
  0.1563127585932317  0.2661877838650973  0.3178957570976623
  0.8436872264067704  0.7338122161349028  0.6821042729023403
  0.8436872264067704  0.7661877838650972  0.1821042429023378
  0.1563127585932317  0.2338122161349027  0.8178957270976597
  0.1795385852106123  0.1566089857808903  0.0551725001276496
  0.8204614147893881  0.8433910292191147  0.9448274778723486
  0.8204614147893881  0.6566089707808853  0.4448275078723511
  0.1795385852106123  0.3433910292191146  0.5551725221276514
  0.0373902717449511  0.5581650732087143  0.2122626874721744
  0.9626097092550436  0.4418349267912857  0.7877372975278208
  0.9626097092550436  0.0581650732087143  0.2877372975278210
  0.0373902717449511  0.9418349267912857  0.7122627024721792
  0.3756030217081135  0.4529338772148152  0.3128858461415880
  0.6243970072918850  0.5470661227851847  0.6871141838584145
  0.6243970072918850  0.9529338772148153  0.1871141538584120
  0.3756030217081135  0.0470661227851848  0.8128858161415855
  0.3157254629431179  0.9772852377978474  0.3786991820101699
  0.6842745370568818  0.0227147622021527  0.6213008179898298
  0.6842745370568818  0.4772852377978474  0.1213008179898299
  0.3157254629431179  0.5227147622021526  0.8786991820101702
