Sodium difluorodioxoniobate             
   1.0000000000000000     
     8.1879455955837699    0.0000000000000000   -0.0162647064647810
     0.0000000000000000    5.4810736925988985    0.0000000000000000
    -1.6066295454343062    0.0000000000000000    7.3779227310361097
   Na   Ta   O    F 
     4     4     8     8
Direct
  0.3707734104383036  0.7898185406822122  0.1076545932958979
  0.6292265595616939  0.2101814593177878  0.8923454067041021
  0.6292265595616939  0.2898185406822122  0.3923454067041021
  0.3707734104383036  0.7101814593177878  0.6076545932958979
  0.1588516788592145  0.2599262490397720  0.2968111621635998
  0.8411483511407880  0.7400737809602305  0.7031888678363956
  0.8411483511407880  0.7599262190397695  0.2031888378364002
  0.1588516788592145  0.2400737509602280  0.7968111321636044
  0.1872768074431974  0.1670581162151450  0.0530539871267237
  0.8127231625568001  0.8329419137848575  0.9469459908732745
  0.8127231625568001  0.6670580862151425  0.4469460208732698
  0.1872768074431974  0.3329418837848550  0.5530540091267255
  0.0285674531730677  0.5467812560359562  0.2140056509435837
  0.9714325358269349  0.4532187439640438  0.7859943340564115
  0.9714325358269349  0.0467812560359562  0.2859943340564115
  0.0285674531730677  0.9532187439640438  0.7140056659435885
  0.3704470423383412  0.4687498098166856  0.3134220565293617
  0.6295529576616588  0.5312501901833144  0.6865779734706408
  0.6295529576616588  0.9687498098166856  0.1865779434706383
  0.3704470423383412  0.0312501901833144  0.8134220265293592
  0.3240253247048557  0.9843388500377301  0.3748765627133395
  0.6759746752951443  0.0156611499622699  0.6251234072866581
  0.6759746752951443  0.4843388500377301  0.1251234372866605
  0.3240253247048557  0.5156611499622699  0.8748765927133419

  0.00000000E+00  0.00000000E+00  0.00000000E+00
  0.00000000E+00  0.00000000E+00  0.00000000E+00
  0.00000000E+00  0.00000000E+00  0.00000000E+00
  0.00000000E+00  0.00000000E+00  0.00000000E+00
  0.00000000E+00  0.00000000E+00  0.00000000E+00
  0.00000000E+00  0.00000000E+00  0.00000000E+00
  0.00000000E+00  0.00000000E+00  0.00000000E+00
  0.00000000E+00  0.00000000E+00  0.00000000E+00
  0.00000000E+00  0.00000000E+00  0.00000000E+00
  0.00000000E+00  0.00000000E+00  0.00000000E+00
  0.00000000E+00  0.00000000E+00  0.00000000E+00
  0.00000000E+00  0.00000000E+00  0.00000000E+00
  0.00000000E+00  0.00000000E+00  0.00000000E+00
  0.00000000E+00  0.00000000E+00  0.00000000E+00
  0.00000000E+00  0.00000000E+00  0.00000000E+00
  0.00000000E+00  0.00000000E+00  0.00000000E+00
  0.00000000E+00  0.00000000E+00  0.00000000E+00
  0.00000000E+00  0.00000000E+00  0.00000000E+00
  0.00000000E+00  0.00000000E+00  0.00000000E+00
  0.00000000E+00  0.00000000E+00  0.00000000E+00
  0.00000000E+00  0.00000000E+00  0.00000000E+00
  0.00000000E+00  0.00000000E+00  0.00000000E+00
  0.00000000E+00  0.00000000E+00  0.00000000E+00
  0.00000000E+00  0.00000000E+00  0.00000000E+00
