Sodium difluorodioxoniobate             
   1.0000000000000000     
     8.0997295380000001    0.0000000000000000    0.0000000000000000
     0.0000000000000000    5.4391298293999997    0.0000000000000000
    -1.5753729267000001    0.0000000000000000    7.3307879278000003
   Na   Ta   O    F 
     4     4     8     8
Direct
  0.3674530415425416  0.7897731640073156  0.1101995409999643
  0.6325469284574553  0.2102268359926851  0.8898004590000359
  0.6325469284574553  0.2897731640073149  0.3898004590000361
  0.3674530415425416  0.7102268359926844  0.6101995409999641
  0.1590087869666282  0.2630561796002794  0.2984334678225427
  0.8409912430333744  0.7369438503997231  0.7015665621774525
  0.8409912430333744  0.7630561496002769  0.2015665321774573
  0.1590087869666282  0.2369438203997206  0.7984334378225475
  0.1867118574231157  0.1590079675525141  0.0548360289435135
  0.8132881125768819  0.8409920624474886  0.9451639490564846
  0.8132881125768819  0.6590079375525114  0.4451639790564801
  0.1867118574231157  0.3409920324474860  0.5548360509435154
  0.0337555104474469  0.5556320093362250  0.2106050135320547
  0.9662444785525556  0.4443679906637749  0.7893949714679399
  0.9662444785525556  0.0556320093362251  0.2893949714679402
  0.0337555104474469  0.9443679906637750  0.7106050285320601
  0.3741721960681396  0.4675602447157159  0.3130466342310013
  0.6258278039318602  0.5324397552842838  0.6869533957690009
  0.6258278039318602  0.9675602447157162  0.1869533657689987
  0.3741721960681396  0.0324397552842841  0.8130466042309991
  0.3229671240474456  0.9842275393722594  0.3794490939317605
  0.6770328759525543  0.0157724606277405  0.6205508760682373
  0.6770328759525543  0.4842275393722595  0.1205509060682396
  0.3229671240474456  0.5157724606277406  0.8794491239317627

  0.00000000E+00  0.00000000E+00  0.00000000E+00
  0.00000000E+00  0.00000000E+00  0.00000000E+00
  0.00000000E+00  0.00000000E+00  0.00000000E+00
  0.00000000E+00  0.00000000E+00  0.00000000E+00
  0.00000000E+00  0.00000000E+00  0.00000000E+00
  0.00000000E+00  0.00000000E+00  0.00000000E+00
  0.00000000E+00  0.00000000E+00  0.00000000E+00
  0.00000000E+00  0.00000000E+00  0.00000000E+00
  0.00000000E+00  0.00000000E+00  0.00000000E+00
  0.00000000E+00  0.00000000E+00  0.00000000E+00
  0.00000000E+00  0.00000000E+00  0.00000000E+00
  0.00000000E+00  0.00000000E+00  0.00000000E+00
  0.00000000E+00  0.00000000E+00  0.00000000E+00
  0.00000000E+00  0.00000000E+00  0.00000000E+00
  0.00000000E+00  0.00000000E+00  0.00000000E+00
  0.00000000E+00  0.00000000E+00  0.00000000E+00
  0.00000000E+00  0.00000000E+00  0.00000000E+00
  0.00000000E+00  0.00000000E+00  0.00000000E+00
  0.00000000E+00  0.00000000E+00  0.00000000E+00
  0.00000000E+00  0.00000000E+00  0.00000000E+00
  0.00000000E+00  0.00000000E+00  0.00000000E+00
  0.00000000E+00  0.00000000E+00  0.00000000E+00
  0.00000000E+00  0.00000000E+00  0.00000000E+00
  0.00000000E+00  0.00000000E+00  0.00000000E+00
