Sodium difluorodioxoniobate             
   1.0000000000000000     
     8.0025997162000007    0.0000000000000000    0.0000000000000000
     0.0000000000000000    5.4071798324999998    0.0000000000000000
    -1.5742180123000000    0.0000000000000000    7.4600023788999996
   Na   Nb   O    F 
     4     4     8     8
Direct
  0.3666000070000024  0.7799999710000023  0.1155999969999968
  0.6333999630000022  0.2200000289999977  0.8844000100000002
  0.6333999630000022  0.2799999710000023  0.3844000100000002
  0.3666000070000024  0.7200000289999977  0.6155999899999998
  0.1549399940000029  0.2644000049999988  0.3179999890000005
  0.8450599909999994  0.7355999950000012  0.6820000410000020
  0.8450599909999994  0.7644000049999988  0.1820000109999995
  0.1549399940000029  0.2355999950000012  0.8179999589999980
  0.1825000050000014  0.1562000070000025  0.0709000009999983
  0.8174999949999986  0.8438000080000023  0.9290999769999999
  0.8174999949999986  0.6561999919999977  0.4291000070000024
  0.1825000050000014  0.3438000080000023  0.5709000230000001
  0.0424999999999969  0.5439000129999982  0.2117000069999975
  0.9574999809999980  0.4560999870000018  0.7882999779999977
  0.9574999809999980  0.0439000129999982  0.2882999779999977
  0.0424999999999969  0.9560999870000018  0.7117000220000023
  0.3768999870000016  0.4440000060000031  0.3136999910000000
  0.6231000419999972  0.5559999939999969  0.6863000390000025
  0.6231000419999972  0.9440000060000031  0.1863000090000000
  0.3768999870000016  0.0559999939999969  0.8136999609999975
  0.3104000089999985  0.9765999910000005  0.3783000110000003
  0.6895999910000015  0.0234000089999995  0.6216999889999997
  0.6895999910000015  0.4765999910000005  0.1216999889999997
  0.3104000089999985  0.5234000089999995  0.8783000110000003

  0.00000000E+00  0.00000000E+00  0.00000000E+00
  0.00000000E+00  0.00000000E+00  0.00000000E+00
  0.00000000E+00  0.00000000E+00  0.00000000E+00
  0.00000000E+00  0.00000000E+00  0.00000000E+00
  0.00000000E+00  0.00000000E+00  0.00000000E+00
  0.00000000E+00  0.00000000E+00  0.00000000E+00
  0.00000000E+00  0.00000000E+00  0.00000000E+00
  0.00000000E+00  0.00000000E+00  0.00000000E+00
  0.00000000E+00  0.00000000E+00  0.00000000E+00
  0.00000000E+00  0.00000000E+00  0.00000000E+00
  0.00000000E+00  0.00000000E+00  0.00000000E+00
  0.00000000E+00  0.00000000E+00  0.00000000E+00
  0.00000000E+00  0.00000000E+00  0.00000000E+00
  0.00000000E+00  0.00000000E+00  0.00000000E+00
  0.00000000E+00  0.00000000E+00  0.00000000E+00
  0.00000000E+00  0.00000000E+00  0.00000000E+00
  0.00000000E+00  0.00000000E+00  0.00000000E+00
  0.00000000E+00  0.00000000E+00  0.00000000E+00
  0.00000000E+00  0.00000000E+00  0.00000000E+00
  0.00000000E+00  0.00000000E+00  0.00000000E+00
  0.00000000E+00  0.00000000E+00  0.00000000E+00
  0.00000000E+00  0.00000000E+00  0.00000000E+00
  0.00000000E+00  0.00000000E+00  0.00000000E+00
  0.00000000E+00  0.00000000E+00  0.00000000E+00
