Sodium difluorodioxoniobate             
   1.0000000000000000     
     8.1879455955837699    0.0000000000000000   -0.0162647064647810
     0.0000000000000000    5.4810736925988985    0.0000000000000000
    -1.6066295454343062    0.0000000000000000    7.3779227310361097
   Na   Ta   O    F 
     4     4     8     8
Direct
  0.3707734104383061  0.7898185406822111  0.1076545932958951
  0.6292265595616913  0.2101814593177891  0.8923454067041050
  0.6292265595616913  0.2898185406822109  0.3923454067041049
  0.3707734104383061  0.7101814593177889  0.6076545932958950
  0.1588516788592141  0.2599262490397701  0.2968111621635995
  0.8411483511407882  0.7400737809602324  0.7031888678363960
  0.8411483511407882  0.7599262190397676  0.2031888378364005
  0.1588516788592140  0.2400737509602299  0.7968111321636040
  0.1872768074431950  0.1670581162151479  0.0530539871267258
  0.8127231625568023  0.8329419137848547  0.9469459908732727
  0.8127231625568023  0.6670580862151453  0.4469460208732677
  0.1872768074431950  0.3329418837848522  0.5530540091267273
  0.0285674531730699  0.5467812560359538  0.2140056509435820
  0.9714325358269328  0.4532187439640465  0.7859943340564134
  0.9714325358269328  0.0467812560359535  0.2859943340564133
  0.0285674531730699  0.9532187439640462  0.7140056659435866
  0.3704470423383419  0.4687498098166873  0.3134220565293594
  0.6295529576616584  0.5312501901833128  0.6865779734706432
  0.6295529576616584  0.9687498098166872  0.1865779434706405
  0.3704470423383419  0.0312501901833127  0.8134220265293568
  0.3240253247048529  0.9843388500377275  0.3748765627133419
  0.6759746752951471  0.0156611499622726  0.6251234072866556
  0.6759746752951471  0.4843388500377273  0.1251234372866581
  0.3240253247048529  0.5156611499622725  0.8748765927133444

  0.00000000E+00  0.00000000E+00  0.00000000E+00
  0.00000000E+00  0.00000000E+00  0.00000000E+00
  0.00000000E+00  0.00000000E+00  0.00000000E+00
  0.00000000E+00  0.00000000E+00  0.00000000E+00
  0.00000000E+00  0.00000000E+00  0.00000000E+00
  0.00000000E+00  0.00000000E+00  0.00000000E+00
  0.00000000E+00  0.00000000E+00  0.00000000E+00
  0.00000000E+00  0.00000000E+00  0.00000000E+00
  0.00000000E+00  0.00000000E+00  0.00000000E+00
  0.00000000E+00  0.00000000E+00  0.00000000E+00
  0.00000000E+00  0.00000000E+00  0.00000000E+00
  0.00000000E+00  0.00000000E+00  0.00000000E+00
  0.00000000E+00  0.00000000E+00  0.00000000E+00
  0.00000000E+00  0.00000000E+00  0.00000000E+00
  0.00000000E+00  0.00000000E+00  0.00000000E+00
  0.00000000E+00  0.00000000E+00  0.00000000E+00
  0.00000000E+00  0.00000000E+00  0.00000000E+00
  0.00000000E+00  0.00000000E+00  0.00000000E+00
  0.00000000E+00  0.00000000E+00  0.00000000E+00
  0.00000000E+00  0.00000000E+00  0.00000000E+00
  0.00000000E+00  0.00000000E+00  0.00000000E+00
  0.00000000E+00  0.00000000E+00  0.00000000E+00
  0.00000000E+00  0.00000000E+00  0.00000000E+00
  0.00000000E+00  0.00000000E+00  0.00000000E+00
