NbOF3_W11-333-vasp_21-relcw
0
Monkhorst-Pack
4 6 4
0 0 0
