SYSTEM=NbOF2.5(OH)0.5_W1_VASP_PBE_DFT-D3_APO
ISTART=0
ISMEAR=0
SIGMA=0.1
ENCUT=550
PREC=N
LREAL=A
EDIFF=1e-8
EDIFFG=-5e-3
NELMIN=6
ISIF=3
NSW=1000
IBRION=2
