Sodium difluorodioxoniobate
1.0
        8.0997295380         0.0000000000         0.0000000000
        0.0000000000         5.4391298294         0.0000000000
       -1.5753729267         0.0000000000         7.3307879278
   Na   Ta    O    F
    4    4    8    8
Direct
     0.376700014         0.793200016         0.109200001
     0.623299956         0.206799984         0.890799999
     0.623299956         0.293200016         0.390799999
     0.376700014         0.706799984         0.609200001
     0.158069998         0.259799987         0.298159987
     0.841930032         0.740200043         0.701840043
     0.841930032         0.759799957         0.201840013
     0.158069998         0.240200013         0.798159957
     0.198500007         0.154300004         0.053300001
     0.801499963         0.845700026         0.946699977
     0.801499963         0.654299974         0.446700007
     0.198500007         0.345699996         0.553300023
     0.036699999         0.559199989         0.216299996
     0.963299990         0.440800011         0.783699989
     0.963299990         0.059199989         0.283699989
     0.036699999         0.940800011         0.716300011
     0.376399994         0.471899986         0.303700000
     0.623600006         0.528100014         0.696300030
     0.623600006         0.971899986         0.196300000
     0.376399994         0.028100014         0.803699970
     0.330399990         0.982299984         0.376700014
     0.669600010         0.017700016         0.623299956
     0.669600010         0.482299984         0.123299986
     0.330399990         0.517700016         0.876700044
