Sodium difluorodioxoniobate             
   1.0000000000000000     
     8.0025997162000007    0.0000000000000000    0.0000000000000000
     0.0000000000000000    5.4071798324999998    0.0000000000000000
    -1.5742180123000000    0.0000000000000000    7.4600023788999996
   Na   Nb   O    F 
     4     4     8     8
Direct
  0.3595416542763336  0.7803808976636408  0.1195942940164760
  0.6404583157236712  0.2196191023363593  0.8804057129835214
  0.6404583157236712  0.2803808976636405  0.3804057129835211
  0.3595416542763336  0.7196191023363592  0.6195942870164786
  0.1563309918003362  0.2684720020927497  0.3189301885085223
  0.8436689931996659  0.7315279979072503  0.6810698414914803
  0.8436689931996659  0.7684720020927497  0.1810698114914777
  0.1563309918003362  0.2315279979072504  0.8189301585085197
  0.1787251638108307  0.1527394238697244  0.0563942643289431
  0.8212748361891694  0.8472605911302804  0.9436057136710549
  0.8212748361891694  0.6527394088697196  0.4436057436710574
  0.1787251638108307  0.3472605911302804  0.5563942863289451
  0.0413604896525240  0.5641574726777451  0.2107353602470153
  0.9586394913474708  0.4358425273222545  0.7892646247529798
  0.9586394913474708  0.0641574726777454  0.2892646247529800
  0.0413604896525240  0.9358425273222549  0.7107353752470202
  0.3781978706932201  0.4523012559377941  0.3130532987981216
  0.6218021583067785  0.5476987440622061  0.6869467312018812
  0.6218021583067785  0.9523012559377939  0.1869467012018785
  0.3781978706932201  0.0476987440622059  0.8130532687981188
  0.3150781456088981  0.9773009674065285  0.3806173013328799
  0.6849218543911021  0.0226990325934716  0.6193826986671198
  0.6849218543911021  0.4773009674065283  0.1193826986671200
  0.3150781456088981  0.5226990325934715  0.8806173013328802

  0.00000000E+00  0.00000000E+00  0.00000000E+00
  0.00000000E+00  0.00000000E+00  0.00000000E+00
  0.00000000E+00  0.00000000E+00  0.00000000E+00
  0.00000000E+00  0.00000000E+00  0.00000000E+00
  0.00000000E+00  0.00000000E+00  0.00000000E+00
  0.00000000E+00  0.00000000E+00  0.00000000E+00
  0.00000000E+00  0.00000000E+00  0.00000000E+00
  0.00000000E+00  0.00000000E+00  0.00000000E+00
  0.00000000E+00  0.00000000E+00  0.00000000E+00
  0.00000000E+00  0.00000000E+00  0.00000000E+00
  0.00000000E+00  0.00000000E+00  0.00000000E+00
  0.00000000E+00  0.00000000E+00  0.00000000E+00
  0.00000000E+00  0.00000000E+00  0.00000000E+00
  0.00000000E+00  0.00000000E+00  0.00000000E+00
  0.00000000E+00  0.00000000E+00  0.00000000E+00
  0.00000000E+00  0.00000000E+00  0.00000000E+00
  0.00000000E+00  0.00000000E+00  0.00000000E+00
  0.00000000E+00  0.00000000E+00  0.00000000E+00
  0.00000000E+00  0.00000000E+00  0.00000000E+00
  0.00000000E+00  0.00000000E+00  0.00000000E+00
  0.00000000E+00  0.00000000E+00  0.00000000E+00
  0.00000000E+00  0.00000000E+00  0.00000000E+00
  0.00000000E+00  0.00000000E+00  0.00000000E+00
  0.00000000E+00  0.00000000E+00  0.00000000E+00
