Sodium difluorodioxoniobate             
   1.0000000000000000     
     8.0997295380000001    0.0000000000000000    0.0000000000000000
     0.0000000000000000    5.4391298293999997    0.0000000000000000
    -1.5753729267000001    0.0000000000000000    7.3307879278000003
   Na   Ta   O    F 
     4     4     8     8
Direct
  0.3674530415425394  0.7897731640073147  0.1101995409999645
  0.6325469284574581  0.2102268359926853  0.8898004590000355
  0.6325469284574581  0.2897731640073147  0.3898004590000355
  0.3674530415425394  0.7102268359926853  0.6101995409999645
  0.1590087869666306  0.2630561796002766  0.2984334678225409
  0.8409912430333719  0.7369438503997259  0.7015665621774545
  0.8409912430333719  0.7630561496002741  0.2015665321774591
  0.1590087869666306  0.2369438203997234  0.7984334378225455
  0.1867118574231128  0.1590079675525118  0.0548360289435124
  0.8132881125768847  0.8409920624474907  0.9451639490564858
  0.8132881125768847  0.6590079375525093  0.4451639790564812
  0.1867118574231128  0.3409920324474882  0.5548360509435142
  0.0337555104474490  0.5556320093362217  0.2106050135320530
  0.9662444785525537  0.4443679906637783  0.7893949714679422
  0.9662444785525537  0.0556320093362217  0.2893949714679422
  0.0337555104474490  0.9443679906637783  0.7106050285320578
  0.3741721960681375  0.4675602447157132  0.3130466342310001
  0.6258278039318625  0.5324397552842868  0.6869533957690024
  0.6258278039318625  0.9675602447157132  0.1869533657689999
  0.3741721960681375  0.0324397552842868  0.8130466042309976
  0.3229671240474445  0.9842275393722559  0.3794490939317612
  0.6770328759525555  0.0157724606277370  0.6205508760682363
  0.6770328759525555  0.4842275393722559  0.1205509060682388
  0.3229671240474445  0.5157724606277441  0.8794491239317637

  0.00000000E+00  0.00000000E+00  0.00000000E+00
  0.00000000E+00  0.00000000E+00  0.00000000E+00
  0.00000000E+00  0.00000000E+00  0.00000000E+00
  0.00000000E+00  0.00000000E+00  0.00000000E+00
  0.00000000E+00  0.00000000E+00  0.00000000E+00
  0.00000000E+00  0.00000000E+00  0.00000000E+00
  0.00000000E+00  0.00000000E+00  0.00000000E+00
  0.00000000E+00  0.00000000E+00  0.00000000E+00
  0.00000000E+00  0.00000000E+00  0.00000000E+00
  0.00000000E+00  0.00000000E+00  0.00000000E+00
  0.00000000E+00  0.00000000E+00  0.00000000E+00
  0.00000000E+00  0.00000000E+00  0.00000000E+00
  0.00000000E+00  0.00000000E+00  0.00000000E+00
  0.00000000E+00  0.00000000E+00  0.00000000E+00
  0.00000000E+00  0.00000000E+00  0.00000000E+00
  0.00000000E+00  0.00000000E+00  0.00000000E+00
  0.00000000E+00  0.00000000E+00  0.00000000E+00
  0.00000000E+00  0.00000000E+00  0.00000000E+00
  0.00000000E+00  0.00000000E+00  0.00000000E+00
  0.00000000E+00  0.00000000E+00  0.00000000E+00
  0.00000000E+00  0.00000000E+00  0.00000000E+00
  0.00000000E+00  0.00000000E+00  0.00000000E+00
  0.00000000E+00  0.00000000E+00  0.00000000E+00
  0.00000000E+00  0.00000000E+00  0.00000000E+00
