Sodium difluorodioxoniobate             
   1.0000000000000000     
     8.0749895642735758    0.0000000000000000   -0.0133825494433117
     0.0000000000000000    5.4404446419376837    0.0000000000000000
    -1.6007013707597291    0.0000000000000000    7.4774514505467442
   Na   Nb   O    F 
     4     4     8     8
Direct
  0.3621541349789652  0.7813545218878062  0.1185041827195690
  0.6378458350210394  0.2186454781121938  0.8814958242804281
  0.6378458350210394  0.2813545218878062  0.3814958242804281
  0.3621541349789652  0.7186454781121938  0.6185041757195719
  0.1563127585932307  0.2661877838650994  0.3178957570976593
  0.8436872264067716  0.7338122161349006  0.6821042729023432
  0.8436872264067716  0.7661877838650994  0.1821042429023407
  0.1563127585932307  0.2338122161349006  0.8178957270976568
  0.1795385852106151  0.1566089857808919  0.0551725001276466
  0.8204614147893849  0.8433910292191129  0.9448274778723516
  0.8204614147893849  0.6566089707808871  0.4448275078723540
  0.1795385852106151  0.3433910292191129  0.5551725221276484
  0.0373902717449539  0.5581650732087127  0.2122626874721760
  0.9626097092550410  0.4418349267912873  0.7877372975278192
  0.9626097092550410  0.0581650732087127  0.2877372975278192
  0.0373902717449539  0.9418349267912873  0.7122627024721808
  0.3756030217081161  0.4529338772148179  0.3128858461415902
  0.6243970072918827  0.5470661227851821  0.6871141838584123
  0.6243970072918827  0.9529338772148179  0.1871141538584098
  0.3756030217081161  0.0470661227851821  0.8128858161415877
  0.3157254629431208  0.9772852377978438  0.3786991820101733
  0.6842745370568792  0.0227147622021562  0.6213008179898267
  0.6842745370568792  0.4772852377978438  0.1213008179898267
  0.3157254629431208  0.5227147622021562  0.8786991820101733

  0.00000000E+00  0.00000000E+00  0.00000000E+00
  0.00000000E+00  0.00000000E+00  0.00000000E+00
  0.00000000E+00  0.00000000E+00  0.00000000E+00
  0.00000000E+00  0.00000000E+00  0.00000000E+00
  0.00000000E+00  0.00000000E+00  0.00000000E+00
  0.00000000E+00  0.00000000E+00  0.00000000E+00
  0.00000000E+00  0.00000000E+00  0.00000000E+00
  0.00000000E+00  0.00000000E+00  0.00000000E+00
  0.00000000E+00  0.00000000E+00  0.00000000E+00
  0.00000000E+00  0.00000000E+00  0.00000000E+00
  0.00000000E+00  0.00000000E+00  0.00000000E+00
  0.00000000E+00  0.00000000E+00  0.00000000E+00
  0.00000000E+00  0.00000000E+00  0.00000000E+00
  0.00000000E+00  0.00000000E+00  0.00000000E+00
  0.00000000E+00  0.00000000E+00  0.00000000E+00
  0.00000000E+00  0.00000000E+00  0.00000000E+00
  0.00000000E+00  0.00000000E+00  0.00000000E+00
  0.00000000E+00  0.00000000E+00  0.00000000E+00
  0.00000000E+00  0.00000000E+00  0.00000000E+00
  0.00000000E+00  0.00000000E+00  0.00000000E+00
  0.00000000E+00  0.00000000E+00  0.00000000E+00
  0.00000000E+00  0.00000000E+00  0.00000000E+00
  0.00000000E+00  0.00000000E+00  0.00000000E+00
  0.00000000E+00  0.00000000E+00  0.00000000E+00
