Sodium difluorodioxoniobate             
   1.0000000000000000     
     8.0997295380000001    0.0000000000000000    0.0000000000000000
     0.0000000000000000    5.4391298293999997    0.0000000000000000
    -1.5753729267000001    0.0000000000000000    7.3307879278000003
   Na   Ta   O    F 
     4     4     8     8
Direct
  0.3767000140000007  0.7932000160000001  0.1092000009999978
  0.6232999559999968  0.2067999839999999  0.8907999990000022
  0.6232999559999968  0.2932000160000001  0.3907999990000022
  0.3767000140000007  0.7067999839999999  0.6092000009999978
  0.1580699980000020  0.2597999870000010  0.2981599869999982
  0.8419300320000005  0.7402000430000015  0.7018400429999971
  0.8419300320000005  0.7597999569999985  0.2018400130000018
  0.1580699980000020  0.2402000129999990  0.7981599570000029
  0.1985000069999998  0.1543000039999995  0.0533000009999967
  0.8014999629999977  0.8457000260000029  0.9466999770000015
  0.8014999629999977  0.6542999739999971  0.4467000069999969
  0.1985000069999998  0.3456999960000005  0.5533000229999985
  0.0366999989999997  0.5591999889999997  0.2162999959999965
  0.9632999900000030  0.4408000110000003  0.7836999889999987
  0.9632999900000030  0.0591999889999997  0.2836999889999987
  0.0366999989999997  0.9408000110000003  0.7163000110000013
  0.3763999940000033  0.4718999859999968  0.3036999999999992
  0.6236000059999967  0.5281000140000032  0.6963000300000033
  0.6236000059999967  0.9718999859999968  0.1963000000000008
  0.3763999940000033  0.0281000140000032  0.8036999699999967
  0.3303999899999965  0.9822999840000008  0.3767000140000007
  0.6696000100000035  0.0177000159999992  0.6232999559999968
  0.6696000100000035  0.4822999840000008  0.1232999859999993
  0.3303999899999965  0.5177000159999992  0.8767000440000032

  0.00000000E+00  0.00000000E+00  0.00000000E+00
  0.00000000E+00  0.00000000E+00  0.00000000E+00
  0.00000000E+00  0.00000000E+00  0.00000000E+00
  0.00000000E+00  0.00000000E+00  0.00000000E+00
  0.00000000E+00  0.00000000E+00  0.00000000E+00
  0.00000000E+00  0.00000000E+00  0.00000000E+00
  0.00000000E+00  0.00000000E+00  0.00000000E+00
  0.00000000E+00  0.00000000E+00  0.00000000E+00
  0.00000000E+00  0.00000000E+00  0.00000000E+00
  0.00000000E+00  0.00000000E+00  0.00000000E+00
  0.00000000E+00  0.00000000E+00  0.00000000E+00
  0.00000000E+00  0.00000000E+00  0.00000000E+00
  0.00000000E+00  0.00000000E+00  0.00000000E+00
  0.00000000E+00  0.00000000E+00  0.00000000E+00
  0.00000000E+00  0.00000000E+00  0.00000000E+00
  0.00000000E+00  0.00000000E+00  0.00000000E+00
  0.00000000E+00  0.00000000E+00  0.00000000E+00
  0.00000000E+00  0.00000000E+00  0.00000000E+00
  0.00000000E+00  0.00000000E+00  0.00000000E+00
  0.00000000E+00  0.00000000E+00  0.00000000E+00
  0.00000000E+00  0.00000000E+00  0.00000000E+00
  0.00000000E+00  0.00000000E+00  0.00000000E+00
  0.00000000E+00  0.00000000E+00  0.00000000E+00
  0.00000000E+00  0.00000000E+00  0.00000000E+00
